240 5
10 10 10 10 10 

0 0 0 0 0 0 5 2 14 26 38 50 
0 0 0 0 0 0 1 3 
4 0 0 1 0 0 2 12 4 
7 0 0 1 0 0 1 5 
10 0 0 2 0 0 1 6 
10 0 0 2 0 0 4 11 10 7 220 
4 0 0 5 0 0 1 8 
7 0 0 4 0 0 1 9 
9 0 0 1 0 0 1 13 
8 0 0 3 0 0 1 13 
2 0 0 4 0 0 1 13 
7 0 0 2 0 0 1 13 
0 0 0 0 0 0 1 62 
0 0 0 0 0 0 2 15 17 
6 0 0 0 1 0 2 21 16 
4 0 0 0 5 0 1 18 
9 0 0 0 1 0 1 18 
6 0 0 0 2 0 1 19 
8 0 0 0 3 0 1 20 
6 0 0 0 1 0 1 22 
3 0 0 0 2 0 1 22 
7 0 0 0 5 0 2 24 23 
6 0 0 0 3 0 2 25 57 
7 0 0 0 2 0 1 25 
0 0 0 0 0 0 1 62 
0 0 0 0 0 0 2 27 30 
6 0 0 0 0 1 2 33 28 
10 0 0 0 0 2 1 29 
2 0 0 0 0 2 2 35 31 
7 0 0 0 0 5 2 34 33 
5 0 0 0 0 1 1 32 
2 0 0 0 0 4 1 34 
3 0 0 0 0 1 1 35 
8 0 0 0 0 3 2 36 131 
5 0 0 0 0 2 1 36 
9 0 0 0 0 4 1 37 
0 0 0 0 0 0 1 62 
0 0 0 0 0 0 1 39 
10 0 0 0 1 0 3 48 44 40 
8 0 0 0 4 0 2 47 41 
2 0 0 0 4 0 1 42 
7 0 0 0 2 0 1 43 
8 0 0 0 3 0 1 45 
3 0 0 0 2 0 1 45 
8 0 0 0 3 0 1 46 
8 0 0 0 2 0 1 49 
3 0 0 0 1 0 1 49 
8 0 0 0 3 0 1 49 
0 0 0 0 0 0 1 62 
0 0 0 0 0 0 1 51 
6 0 1 0 0 0 1 52 
4 0 3 0 0 0 2 57 53 
9 0 3 0 0 0 2 60 54 
6 0 2 0 0 0 2 59 55 
6 0 1 0 0 0 1 56 
1 0 2 0 0 0 1 58 
7 0 6 0 0 0 1 59 
10 0 2 0 0 0 1 61 
1 0 1 0 0 0 1 61 
8 0 4 0 0 0 1 61 
0 0 0 0 0 0 1 62 
0 0 0 0 0 0 4 63 95 127 159 
0 0 0 0 0 0 2 64 71 
9 0 1 1 1 0 1 65 
7 0 4 1 2 0 1 66 
9 0 3 3 1 0 1 67 
6 0 1 4 4 0 1 68 
5 0 3 4 1 0 2 75 69 
2 0 2 2 1 0 1 70 
10 0 2 3 5 0 1 72 
2 0 3 2 4 0 1 72 
7 0 3 1 2 0 3 77 76 73 
7 0 1 3 5 0 2 79 74 
4 0 4 2 2 0 3 82 81 78 
10 0 3 2 4 0 3 82 81 78 
3 0 1 3 3 0 2 81 78 
3 0 1 3 2 0 2 81 78 
3 0 4 3 1 0 1 80 
10 0 1 1 2 0 1 80 
3 0 3 3 2 0 1 83 
8 0 1 4 3 0 1 83 
3 0 2 2 4 0 1 83 
7 0 5 4 2 0 1 84 
2 0 4 2 1 0 1 85 
10 0 2 1 3 0 2 89 86 
2 0 1 3 4 0 1 87 
5 0 2 3 3 0 1 88 
5 0 2 1 2 0 1 90 
2 0 4 2 1 0 1 90 
2 0 2 2 5 0 1 91 
5 0 3 3 2 0 1 92 
8 0 3 4 2 0 1 93 
2 0 4 3 1 0 1 94 
0 0 0 0 0 0 1 229 
0 0 0 0 0 0 2 96 125 
9 1 1 0 0 1 1 97 
6 4 3 0 0 3 1 98 
1 2 3 0 0 1 1 99 
2 2 1 0 0 4 1 100 
5 2 7 0 0 3 2 124 101 
10 4 4 0 0 3 1 102 
5 1 2 0 0 3 1 103 
2 1 1 0 0 2 5 120 115 109 108 104 
1 3 1 0 0 2 1 105 
10 5 1 0 0 2 2 111 106 
1 2 3 0 0 2 1 107 
4 3 2 0 0 3 1 110 
6 3 2 0 0 1 1 111 
4 3 2 0 0 3 1 110 
4 5 4 0 0 3 1 112 
8 3 3 0 0 4 1 112 
3 1 3 0 0 4 1 113 
9 1 1 0 0 3 2 123 114 
5 4 2 0 0 1 1 116 
6 1 2 0 0 2 1 116 
10 2 4 0 0 1 1 117 
5 5 4 0 0 1 1 118 
9 3 4 0 0 2 1 119 
1 1 2 0 0 4 1 121 
6 2 3 0 0 2 1 121 
1 4 1 0 0 5 1 122 
1 1 1 0 0 2 1 126 
6 3 3 0 0 3 1 126 
2 2 3 0 0 3 1 126 
6 1 2 0 0 2 1 126 
0 0 0 0 0 0 1 229 
0 0 0 0 0 0 2 128 137 
10 0 0 1 1 1 1 129 
1 0 0 2 3 2 1 130 
10 0 0 4 3 3 1 131 
2 0 0 3 4 2 1 132 
4 0 0 3 1 2 2 139 133 
8 0 0 4 2 1 1 134 
5 0 0 3 2 2 1 135 
2 0 0 2 4 2 3 141 140 136 
6 0 0 2 2 3 2 143 138 
10 0 0 2 1 1 4 147 145 143 142 
7 0 0 2 1 2 3 147 145 142 
4 0 0 3 5 2 2 147 142 
4 0 0 2 1 3 2 147 144 
2 0 0 2 6 4 2 147 146 
8 0 0 4 3 2 1 144 
4 0 0 1 2 2 1 144 
3 0 0 2 4 2 1 146 
3 0 0 2 2 2 1 146 
5 0 0 1 4 2 1 148 
8 0 0 3 1 4 1 148 
6 0 0 2 1 2 1 149 
10 0 0 3 4 1 2 153 150 
6 0 0 2 3 1 1 151 
10 0 0 3 3 3 1 152 
8 0 0 5 1 5 1 154 
10 0 0 2 1 2 1 154 
5 0 0 1 1 2 1 155 
6 0 0 5 3 5 1 156 
3 0 0 1 4 6 1 157 
5 0 0 3 2 4 1 158 
0 0 0 0 0 0 1 229 
0 0 0 0 0 0 3 160 164 169 
7 1 0 0 0 0 1 161 
10 2 0 0 0 0 1 162 
7 4 0 0 0 0 2 166 163 
2 2 0 0 0 0 1 165 
8 5 0 0 0 0 1 165 
10 3 0 0 0 0 1 167 
6 1 0 0 0 0 1 167 
6 4 0 0 0 0 1 168 
1 1 0 0 0 0 1 170 
10 2 0 0 0 0 1 170 
0 0 0 0 0 0 2 171 193 
0 0 0 0 0 0 2 172 178 
2 1 0 0 0 1 1 173 
7 1 0 0 0 2 1 174 
8 2 0 0 0 2 1 175 
7 1 0 0 0 4 2 180 176 
5 2 0 0 0 4 1 177 
10 5 0 0 0 4 2 186 179 
2 1 0 0 0 1 2 186 179 
10 2 0 0 0 5 1 181 
3 1 0 0 0 2 1 181 
2 2 0 0 0 1 1 182 
2 5 0 0 0 2 2 187 183 
10 3 0 0 0 3 2 191 184 
8 3 0 0 0 2 1 185 
2 4 0 0 0 1 1 188 
10 2 0 0 0 1 1 188 
4 3 0 0 0 3 2 191 190 
1 2 0 0 0 6 1 189 
4 4 0 0 0 2 1 190 
9 3 0 0 0 3 1 192 
5 3 0 0 0 1 1 192 
0 0 0 0 0 0 1 229 
0 0 0 0 0 0 2 194 195 
7 0 1 0 0 0 1 196 
1 0 2 0 0 0 1 196 
4 0 4 0 0 0 1 197 
7 0 1 0 0 0 1 198 
6 0 2 0 0 0 1 199 
3 0 3 0 0 0 2 201 200 
10 0 4 0 0 0 2 203 202 
5 0 1 0 0 0 1 202 
5 0 4 0 0 0 1 204 
2 0 3 0 0 0 1 204 
0 0 0 0 0 0 2 205 217 
0 0 0 0 0 0 2 206 208 
10 0 0 0 1 0 1 207 
1 0 0 0 5 0 1 209 
8 0 0 0 2 0 1 209 
4 0 0 0 2 0 2 215 210 
2 0 0 0 3 0 2 214 211 
4 0 0 0 4 0 1 212 
10 0 0 0 1 0 1 213 
10 0 0 0 2 0 1 216 
8 0 0 0 3 0 1 216 
1 0 0 0 2 0 1 216 
0 0 0 0 0 0 1 229 
0 0 0 0 0 0 2 218 220 
10 0 0 0 0 1 1 219 
3 0 0 0 0 1 1 221 
4 0 0 0 0 3 1 221 
8 0 0 0 0 3 1 222 
5 0 0 0 0 3 1 223 
6 0 0 0 0 2 2 225 224 
6 0 0 0 0 3 2 227 226 
3 0 0 0 0 1 1 226 
2 0 0 0 0 4 1 228 
1 0 0 0 0 4 1 228 
0 0 0 0 0 0 1 229 
0 0 0 0 0 0 3 230 236 238 
3 0 0 0 1 0 2 235 231 
3 0 0 0 3 0 1 232 
8 0 0 0 1 0 1 233 
10 0 0 0 3 0 1 234 
10 0 0 0 5 0 1 237 
7 0 0 0 2 0 1 237 
10 0 0 0 4 0 1 237 
10 0 0 0 1 0 1 239 
10 0 0 0 2 0 1 239 
4 0 0 0 3 0 1 240 
0 0 0 0 0 0 0 
